
Gurobi 9.1.2 (linux64, gurobi_cl) logging started Fri Jul 30 13:52:41 2021

Using license file /opt/gurobi/gurobi.lic
Set parameter TimeLimit to value 600
Set parameter LogFile to value 912-Presolve2-glass4-1.log
Set parameter Presolve to value 2
Set parameter Seed to value 1

Gurobi Optimizer version 9.1.2 build v9.1.2rc0 (linux64)
Copyright (c) 2021, Gurobi Optimization, LLC

Read MPS format model from file /nfs/models/mip/glass4.mps.bz2
Reading time = 0.00 seconds
glass4: 396 rows, 322 columns, 1815 nonzeros
Thread count: 4 physical cores, 8 logical processors, using up to 8 threads
Optimize a model with 396 rows, 322 columns and 1815 nonzeros
Model fingerprint: 0x0a9d9037
Variable types: 20 continuous, 302 integer (0 binary)
Coefficient statistics:
  Matrix range     [1e+00, 8e+06]
  Objective range  [1e+00, 1e+06]
  Bounds range     [1e+00, 8e+02]
  RHS range        [1e+00, 8e+06]
Presolve removed 6 rows and 6 columns
Presolve time: 0.00s
Presolved: 390 rows, 316 columns, 1803 nonzeros
Variable types: 19 continuous, 297 integer (297 binary)
Found heuristic solution: objective 3.133356e+09
Presolved: 390 rows, 316 columns, 1803 nonzeros


Root relaxation: objective 8.000024e+08, 36 iterations, 0.00 seconds

    Nodes    |    Current Node    |     Objective Bounds      |     Work
 Expl Unexpl |  Obj  Depth IntInf | Incumbent    BestBd   Gap | It/Node Time

     0     0 8.0000e+08    0   72 3.1334e+09 8.0000e+08  74.5%     -    0s
H    0     0                    2.550020e+09 8.0000e+08  68.6%     -    0s
H    0     0                    2.100018e+09 8.0000e+08  61.9%     -    0s
     0     0 8.0000e+08    0   72 2.1000e+09 8.0000e+08  61.9%     -    0s
     0     0 8.0000e+08    0   72 2.1000e+09 8.0000e+08  61.9%     -    0s
H    0     0                    1.750014e+09 8.0000e+08  54.3%     -    0s
     0     0 8.0000e+08    0   75 1.7500e+09 8.0000e+08  54.3%     -    0s
     0     0 8.0000e+08    0   75 1.7500e+09 8.0000e+08  54.3%     -    0s
H    0     2                    1.666680e+09 8.0000e+08  52.0%     -    0s
     0     2 8.0000e+08    0   75 1.6667e+09 8.0000e+08  52.0%     -    0s
H  233   447                    1.600013e+09 8.0000e+08  50.0%   6.4    0s
H 1392  1082                    1.550013e+09 8.0000e+08  48.4%   7.1    0s
H 1433  1051                    1.500013e+09 8.0000e+08  46.7%   7.0    0s
H15485  8093                    1.500013e+09 9.0000e+08  40.0%   3.8    1s
 31139 15484 infeasible   63      1.5000e+09 9.0000e+08  40.0%   4.6    5s
H31549 14731                    1.500012e+09 9.0000e+08  40.0%   4.9    5s
H36075 14077                    1.480013e+09 9.0000e+08  39.2%   6.0    7s
H42722 13881                    1.475013e+09 9.0222e+08  38.8%   7.1    8s
H42727 13235                    1.475013e+09 9.0222e+08  38.8%   7.1    8s
H42755 12320                    1.433346e+09 9.0222e+08  37.1%   7.1    8s
 52501 12170 1.4000e+09   36   30 1.4333e+09 1.0000e+09  30.2%   8.1   10s
H93217 19613                    1.400013e+09 1.1000e+09  21.4%   8.3   13s
*102892 12472              60    1.350013e+09 1.1000e+09  18.5%   8.2   14s
*105497  5778              61    1.200013e+09 1.1000e+09  8.33%   8.2   14s

Cutting planes:
  Gomory: 5
  Cover: 1
  Implied bound: 11
  Projected implied bound: 2
  MIR: 21
  Flow cover: 41
  RLT: 7
  Relax-and-lift: 17

Explored 107333 nodes (871327 simplex iterations) in 14.68 seconds
Thread count was 8 (of 8 available processors)

Solution count 10: 1.20001e+09 1.35001e+09 1.40001e+09 ... 1.50001e+09

Optimal solution found (tolerance 1.00e-04)
Best objective 1.200012600000e+09, best bound 1.200003400000e+09, gap 0.0008%
